p cnf 205 533
24 205 0
-24 -205 0
23 204 0
-23 -204 0
202 203 0
-202 -203 0
22 202 0
-22 -202 0
200 201 0
-200 -201 0
21 200 0
-21 -200 0
198 199 0
-198 -199 0
20 198 0
-20 -198 0
196 197 0
-196 -197 0
19 196 0
-19 -196 0
194 195 0
-194 -195 0
193 194 0
-193 -194 0
-193 -192 -185 0
193 192 0
193 185 0
-192 -191 -190 0
192 191 0
192 190 0
18 191 0
-18 -191 0
190 17 189 188 187 0
-190 -17 0
-190 -189 0
-190 -188 0
-190 -187 0
16 189 0
-16 -189 0
15 188 0
-15 -188 0
186 187 0
-186 -187 0
14 186 0
-14 -186 0
-185 -184 -181 0
185 184 0
185 181 0
-184 189 13 15 183 0
184 -189 0
184 -13 0
184 -15 0
184 -183 0
-183 -18 -182 0
183 18 0
183 182 0
17 182 0
-17 -182 0
181 180 187 0
-181 -180 0
-181 -187 0
12 180 0
-12 -180 0
179 -178 -171 0
-179 178 0
-179 171 0
178 -177 -174 0
-178 177 0
-178 174 0
-177 11 176 0
177 -11 0
177 -176 0
175 176 0
-175 -176 0
10 175 0
-10 -175 0
-174 173 172 0
174 -173 0
174 -172 0
11 173 0
-11 -173 0
176 172 0
-176 -172 0
187 171 0
-187 -171 0
170 -169 -162 0
-170 169 0
-170 162 0
169 -168 -165 0
-169 168 0
-169 165 0
-168 15 167 0
168 -15 0
168 -167 0
166 167 0
-166 -167 0
9 166 0
-9 -166 0
-165 164 163 0
165 -164 0
165 -163 0
15 164 0
-15 -164 0
167 163 0
-167 -163 0
187 162 0
-187 -162 0
-161 -160 -159 -158 0
161 160 0
161 159 0
161 158 0
-160 12 16 17 191 0
160 -12 0
160 -16 0
160 -17 0
160 -191 0
-159 12 13 16 0
159 -12 0
159 -13 0
159 -16 0
187 158 0
-187 -158 0
157 156 153 0
-157 -156 0
-157 -153 0
156 -12 -155 0
-156 12 0
-156 155 0
-155 -18 -182 -154 -188 0
155 18 0
155 182 0
155 154 0
155 188 0
13 154 0
-13 -154 0
-153 -152 -151 -16 -158 0
153 152 0
153 151 0
153 16 0
153 158 0
-152 188 17 18 0
152 -188 0
152 -17 0
152 -18 0
-151 188 154 0
151 -188 0
151 -154 0
150 149 148 147 146 0
-150 -149 0
-150 -148 0
-150 -147 0
-150 -146 0
149 -158 -13 -191 0
-149 158 0
-149 13 0
-149 191 0
148 -158 -17 -18 0
-148 158 0
-148 17 0
-148 18 0
147 -158 -16 0
-147 158 0
-147 16 0
146 -158 -12 0
-146 158 0
-146 12 0
145 191 144 0
-145 -191 0
-145 -144 0
-144 -17 -189 -180 -158 0
144 17 0
144 189 0
144 180 0
144 158 0
143 142 139 187 0
-143 -142 0
-143 -139 0
-143 -187 0
142 141 140 0
-142 -141 0
-142 -140 0
8 141 0
-8 -141 0
140 7 6 5 0
-140 -7 0
-140 -6 0
-140 -5 0
138 139 0
-138 -139 0
-138 -137 -135 0
138 137 0
138 135 0
-137 -7 -136 0
137 7 0
137 136 0
7 136 0
-7 -136 0
136 135 0
-136 -135 0
134 142 133 187 0
-134 -142 0
-134 -133 0
-134 -187 0
132 133 0
-132 -133 0
-132 -131 -127 0
132 131 0
132 127 0
-131 -6 -130 0
131 6 0
131 130 0
-130 -6 -129 0
130 6 0
130 129 0
128 129 0
-128 -129 0
7 128 0
-7 -128 0
-127 -129 -130 0
127 129 0
127 130 0
126 142 125 187 0
-126 -142 0
-126 -125 0
-126 -187 0
124 125 0
-124 -125 0
-124 -123 -119 0
124 123 0
124 119 0
-123 -5 -122 0
123 5 0
123 122 0
-122 -5 -121 0
122 5 0
122 121 0
121 128 120 0
-121 -128 0
-121 -120 0
6 120 0
-6 -120 0
-119 -121 -122 0
119 121 0
119 122 0
118 142 117 187 0
-118 -142 0
-118 -117 0
-118 -187 0
116 117 0
-116 -117 0
-116 -115 -111 0
116 115 0
116 111 0
-115 -8 -114 0
115 8 0
115 114 0
-114 -8 -113 0
114 8 0
114 113 0
113 128 120 112 0
-113 -128 0
-113 -120 0
-113 -112 0
5 112 0
-5 -112 0
-111 -113 -114 0
111 113 0
111 114 0
110 109 103 0
-110 -109 0
-110 -103 0
109 -108 -107 -193 0
-109 108 0
-109 107 0
-109 193 0
4 108 0
-4 -108 0
-107 -106 -105 -104 0
107 106 0
107 105 0
107 104 0
-106 187 154 17 18 0
106 -187 0
106 -154 0
106 -17 0
106 -18 0
-105 187 180 0
105 -187 0
105 -180 0
-104 187 189 0
104 -187 0
104 -189 0
103 -107 -102 0
-103 107 0
-103 102 0
193 102 0
-193 -102 0
101 100 94 0
-101 -100 0
-101 -94 0
100 -108 -99 -193 0
-100 108 0
-100 99 0
-100 193 0
-99 -98 -185 0
99 98 0
99 185 0
-98 -191 -182 -97 0
98 191 0
98 182 0
98 97 0
-97 -96 -95 0
97 96 0
97 95 0
-96 187 188 13 189 0
96 -187 0
96 -188 0
96 -13 0
96 -189 0
-95 187 154 16 0
95 -187 0
95 -154 0
95 -16 0
94 -99 -102 0
-94 99 0
-94 102 0
93 92 88 187 0
-93 -92 0
-93 -88 0
-93 -187 0
92 91 90 89 0
-92 -91 0
-92 -90 0
-92 -89 0
3 91 0
-3 -91 0
90 11 142 0
-90 -11 0
-90 -142 0
89 2 1 4 0
-89 -2 0
-89 -1 0
-89 -4 0
87 88 0
-87 -88 0
-87 -86 -83 0
87 86 0
87 83 0
-86 -2 -85 0
86 2 0
86 85 0
-85 -2 -84 0
85 2 0
85 84 0
90 84 0
-90 -84 0
-83 -84 -85 0
83 84 0
83 85 0
82 92 81 187 0
-82 -92 0
-82 -81 0
-82 -187 0
80 81 0
-80 -81 0
-80 -79 -75 0
80 79 0
80 75 0
-79 -1 -78 0
79 1 0
79 78 0
-78 -1 -77 0
78 1 0
78 77 0
77 76 90 0
-77 -76 0
-77 -90 0
2 76 0
-2 -76 0
-75 -77 -78 0
75 77 0
75 78 0
74 92 73 187 0
-74 -92 0
-74 -73 0
-74 -187 0
72 73 0
-72 -73 0
-72 -71 -67 0
72 71 0
72 67 0
-71 -4 -70 0
71 4 0
71 70 0
-70 -4 -69 0
70 4 0
70 69 0
69 76 68 90 0
-69 -76 0
-69 -68 0
-69 -90 0
1 68 0
-1 -68 0
-67 -69 -70 0
67 69 0
67 70 0
66 92 65 187 0
-66 -92 0
-66 -65 0
-66 -187 0
64 65 0
-64 -65 0
-64 -63 -60 0
64 63 0
64 60 0
-63 -3 -62 0
63 3 0
63 62 0
-62 -3 -61 0
62 3 0
62 61 0
61 76 68 108 90 0
-61 -76 0
-61 -68 0
-61 -108 0
-61 -90 0
-60 -61 -62 0
60 61 0
60 62 0
59 58 54 187 0
-59 -58 0
-59 -54 0
-59 -187 0
58 57 56 55 0
-58 -57 0
-58 -56 0
-58 -55 0
13 57 0
-13 -57 0
92 56 0
-92 -56 0
55 18 17 16 0
-55 -18 0
-55 -17 0
-55 -16 0
53 54 0
-53 -54 0
-53 -52 -49 0
53 52 0
53 49 0
-52 -18 -51 0
52 18 0
52 51 0
-51 -18 -50 0
51 18 0
51 50 0
56 50 0
-56 -50 0
-49 -50 -51 0
49 50 0
49 51 0
48 58 47 187 0
-48 -58 0
-48 -47 0
-48 -187 0
46 47 0
-46 -47 0
-46 -45 -41 0
46 45 0
46 41 0
-45 -17 -44 0
45 17 0
45 44 0
-44 -17 -43 0
44 17 0
44 43 0
43 42 56 0
-43 -42 0
-43 -56 0
18 42 0
-18 -42 0
-41 -43 -44 0
41 43 0
41 44 0
40 58 39 187 0
-40 -58 0
-40 -39 0
-40 -187 0
38 39 0
-38 -39 0
-38 -37 -33 0
38 37 0
38 33 0
-37 -16 -36 0
37 16 0
37 36 0
-36 -16 -35 0
36 16 0
36 35 0
35 42 34 56 0
-35 -42 0
-35 -34 0
-35 -56 0
17 34 0
-17 -34 0
-33 -35 -36 0
33 35 0
33 36 0
32 58 31 187 0
-32 -58 0
-32 -31 0
-32 -187 0
30 31 0
-30 -31 0
-30 -29 -25 0
30 29 0
30 25 0
-29 -13 -28 0
29 13 0
29 28 0
-28 -13 -27 0
28 13 0
28 27 0
27 42 34 26 56 0
-27 -42 0
-27 -34 0
-27 -26 0
-27 -56 0
16 26 0
-16 -26 0
-25 -27 -28 0
25 27 0
25 28 0
